(set-logic ALL)
(set-option :produce-models true)
(declare-sort BoundSet 0)
(declare-sort UnboundSet 0)
(set-option :finite-model-find true)
(declare-fun IsWearingBrownHoodie (BoundSet) Bool)
(declare-fun IsShoppingFor (BoundSet) Bool)
(declare-fun IsWearingBrown (BoundSet) Bool)
(assert (not (=> (and (exists ((a BoundSet)) (exists ((b BoundSet)) (and (IsWearingBrownHoodie a) (IsShoppingFor b)))) (and (forall ((e BoundSet)) (forall ((d BoundSet)) (=> (IsWearingBrownHoodie d) (IsWearingBrown e)))) (forall ((f BoundSet)) (forall ((g BoundSet)) (=> (IsWearingBrown f) (IsWearingBrownHoodie g)))))) (exists ((c BoundSet)) (IsWearingBrown c)))))
(check-sat)
(get-model)